
Log started (V12.8.0.0) Thu Aug 30 12:37:01 2018

New value for time limit in seconds: 500
CPXPARAM_TimeLimit                               500
CPXPARAM_Emphasis_Numerical                      1
CPXPARAM_Parallel                                -1
CPXPARAM_Benders_Strategy                        3
CPXPARAM_MIP_Tolerances_Integrality              9.9999999999999995e-08
CPXPARAM_MIP_Pool_AbsGap                         0
Tried aggregator 4 times.
MIP Presolve eliminated 8254 rows and 3782 columns.
Aggregator did 1223 substitutions.
Reduced MIP has 2399 rows, 2463 columns, and 8920 nonzeros.
Reduced MIP has 25 binaries, 0 generals, 0 SOSs, and 0 indicators.
Presolve time = 0.01 sec. (15.09 ticks)
Found incumbent of value -6.000000 after 0.03 sec. (23.78 ticks)
Tried aggregator 1 time.
Reduced MIP has 2399 rows, 2463 columns, and 8920 nonzeros.
Reduced MIP has 25 binaries, 0 generals, 0 SOSs, and 0 indicators.
Presolve time = 0.00 sec. (2.46 ticks)

        Nodes                                         Cuts/
   Node  Left     Objective  IInf  Best Integer    Best Bound    ItCnt     Gap

      0     0        0.0000                       Benders: 10        0         
      0     0        0.0000                        Benders: 1        3         
      0     0        0.0000                        Benders: 1        4         
      0     0        0.0000                            0.0000        5         
Tried aggregator 1 time.
MIP Presolve modified 140 coefficients.
Reduced MIP has 13 rows, 35 columns, and 107 nonzeros.
Reduced MIP has 25 binaries, 0 generals, 0 SOSs, and 0 indicators.
Presolve time = 0.00 sec. (0.03 ticks)
Probing time = 0.00 sec. (0.01 ticks)
Tried aggregator 1 time.
Reduced MIP has 13 rows, 35 columns, and 107 nonzeros.
Reduced MIP has 25 binaries, 0 generals, 0 SOSs, and 0 indicators.
Presolve time = 0.00 sec. (0.03 ticks)
Probing time = 0.00 sec. (0.01 ticks)
MIP emphasis: balance optimality and feasibility.
MIP search method: dynamic search.
Parallel mode: opportunistic, using up to 8 threads.
Root relaxation solution time = 0.00 sec. (0.02 ticks)
*     0+    0                           -6.0000       -0.0000           100.00%
      0     0        0.0000     4       -6.0000       -0.0000        8  100.00%
      0     0        0.0000     7       -6.0000       Cuts: 3       11  100.00%
*     0+    0                           -5.5000       -0.0000           100.00%

Repeating presolve.
Tried aggregator 1 time.
Reduced MIP has 13 rows, 35 columns, and 107 nonzeros.
Reduced MIP has 25 binaries, 0 generals, 0 SOSs, and 0 indicators.
Presolve time = 0.00 sec. (0.03 ticks)
Probing time = 0.00 sec. (0.01 ticks)
Tried aggregator 1 time.
Reduced MIP has 13 rows, 35 columns, and 107 nonzeros.
Reduced MIP has 25 binaries, 0 generals, 0 SOSs, and 0 indicators.
Presolve time = 0.00 sec. (0.03 ticks)
Represolve time = 0.00 sec. (0.48 ticks)
Probing time = 0.00 sec. (0.01 ticks)
MIP emphasis: balance optimality and feasibility.
MIP search method: dynamic search.
Parallel mode: opportunistic, using up to 8 threads.
Root relaxation solution time = 0.00 sec. (0.15 ticks)
*     0+    0                           -5.5000       -0.0000           100.00%
      0     0        0.0000     7       -5.5000       -0.0000       49  100.00%
      0     0        0.0000     6       -5.5000       Cuts: 4       54  100.00%
      0     0       -0.0286    11       -5.5000      Fract: 3       67   99.48%
      0     2       -0.1129    12       -5.5000       -0.0286       67   99.48%
Elapsed time = 0.28 sec. (237.36 ticks, tree = 0.01 MB, solutions = 1)

Benders cuts applied:  118
Gomory fractional cuts applied:  4

Root node processing (before b&c):
  Real time             =    0.26 sec. (237.13 ticks)
Parallel b&c, 8 threads:
  Real time             =    0.09 sec. (43.07 ticks)
  Sync time (average)   =    0.02 sec.
  Wait time (average)   =    0.00 sec.
                          ------------
Total (root+branch&cut) =    0.35 sec. (280.20 ticks)

Solution pool: 4 solutions saved.

MIP - Integer optimal solution:  Objective = -5.4000000000e+00
Solution time =    0.35 sec.  Iterations = 1308  Nodes = 349 (1)
Deterministic time = 280.78 ticks  (796.95 ticks/sec)


Solution pool written to file 'ngp_a3_b0_n1.sol'.
Current MIP best bound = -5.4000000000e+00 (gap = -0, 0.00%)
